NAME : Instance 23
COMMENT : Comment 23
TYPE : TSP
DIMENSION: 30
EDGE_WEIGHT_TYPE : EUC_2D
NODE_COORD_SECTION
  1 1652 1846
  2 784 642
  3 1115 1549
  4 1002 1263
  5 1769 606
  6 835 1126
  7 682 698
  8 1556 1901
  9 908 1933
  10 1728 1066
  11 574 1267
  12 569 1303
  13 849 595
  14 1384 226
  15 1088 47
  16 14 1939
  17 1195 1705
  18 455 1892
  19 38 1492
  20 981 938
  21 833 1675
  22 504 1716
  23 1298 738
  24 1815 445
  25 36 1243
  26 831 1101
  27 1858 1026
  28 322 719
  29 1561 78
  30 1874 510
EOF
